benchmarks_vrp/att48_7.vrp
NAME: att48_7
TYPE: CVRP
COMMENT: (Rinaldi,Yarrow/Araque) - Cluster Nr.7
DIMENSION: 5
CAPACITY: 15
EDGE_WEIGHT_TYPE: ATT
NODE_COORD_TYPE: TWOD_COORDS
NODE_COORD_SECTION: 
5 5840 5736
1 6316 5497
2 6823 4674
3 7203 5958
4 7501 5899
DEPOT_SECTION: 
2
-1
DEMAND_SECTION: 
1 1
3 1
4 1
5 1
2 0
EOF
