benchmarks_vrp/att48_7.tour
NAME: att48_7 solution
TYPE: TOUR
TOUR_SECTION:
2 1 5 3 4 -1
-1
EOF